100
128
3
2
11
16
37
3
33
6
29
20
23
21
6
28
26
21
1
5
30
10
12
24
7
11
19
8
10
10
1
8
50
1
43
4
36
25
3
4
42
13
10
1
17
40
2
11
19
64
2
2
30
2
21
2
5
6
8
14
4
23
1
2
6
29
55
43
7
53
63
5
1
38
59
55
62
35
33
10
54
4
51
43
64
42
20
17
55
48
2
47
25
62
62
18
41
37
29
6
31
32